unsat
(define-fun SC ((s (_ BitVec 4)) (t (_ BitVec 4))) Bool (= #b0000 (bvand s (bvsub #b1111 t))))
68.11user 0.03system 1:08.15elapsed 99%CPU (0avgtext+0avgdata 67852maxresident)k
0inputs+8outputs (0major+11505minor)pagefaults 0swaps
